; benchmark generated from python API
(set-info :status unknown)
(declare-datatypes ((IntState 0)) (((Mk1 (val1 Int)) (Mk2 (val2 Int)))))
 (declare-fun |c_hanoi_#t~ret0| () Int)
(declare-fun |c_hanoi_#in~n| () Int)
(declare-fun c_hanoi_~n () Int)
(assert
 (let (($x84 (exists ((v_nnf_154_st IntState) (val!142 Int) )(exists ((v_nnf_153_st IntState) (val!143 Int) )(let (($x35 (<= |c_hanoi_#in~n| 4)))
 (let (($x54 (and $x35 (<= 1 (val2 v_nnf_154_st)) (<= (+ (* 2 (val2 v_nnf_153_st)) 1) |c_hanoi_#t~ret0|) (<= (+ (* 2 (val2 v_nnf_154_st)) 1) (val2 v_nnf_153_st)))))
 (let (($x52 (not (= v_nnf_153_st (Mk1 val!143)))))
 (let (($x42 (not (= v_nnf_154_st (Mk1 val!142)))))
 (and $x42 $x52 $x54))))))
 )
 ))
 (let (($x47 (exists ((v_nnf_151 Int) )(exists ((v_nnf_152 Int) )(let (($x19 (<= c_hanoi_~n 4)))
 (and $x19 (<= (+ (* 2 v_nnf_151) 1) |c_hanoi_#t~ret0|) (<= 1 v_nnf_152) (<= (+ (* 2 v_nnf_152) 1) v_nnf_151) (<= |c_hanoi_#in~n| c_hanoi_~n))))
 )
 ))
 (and $x47 (not $x84)))))
(check-sat)
